%BLOCK LATTICE_CART
  5.43  0.0   0.0
  0.0   5.43  0.0
  0.0   0.0   5.43
%ENDBLOCK LATTICE_CART

%BLOCK POSITIONS_FRAC
Si:1  0.0  0.0  0.0
Si:1  0.25 0.25 0.25
O:1   0.5  0.5  0.5
%ENDBLOCK POSITIONS_FRAC

%BLOCK SPECIES_MASS
Si:1 28.0855
O:1  16.00
%ENDBLOCK SPECIES_MASS
