SystemName          CuM
SystemLabel         CuM

NumberOfAtoms       64
NumberOfSpecies     4

%block ChemicalSpeciesLabel
  1  6   C
  2  1   H
  3  29  Cu
  4  7   N
%endblock ChemicalSpeciesLabel

PAO.BasisSize           DZP

%block LatticeVectors
  15.9963384717706560   -0.0010986579187983    0.0000000000000000
  -0.0012986160005734   16.7510802364253131    0.0000000000000000
   0.0000000000000000    0.0000000000000000   23.0000000000000000
%endblock LatticeVectors

AtomicCoordinatesFormat  Fractional

%block AtomicCoordinatesAndAtomicSpecies
  0.3603168064530209    0.3238987181983433    0.3726313908452425   1
  0.2981684235315214    0.2604265289765877    0.3733056575544609   1
  0.2122016888309943    0.2772278109735780    0.3745890499228608   1
  0.1552273117894529    0.2148026768057889    0.3753509713778058   1
  0.2616942709592820    0.1208127612066292    0.3736180405464253   1
  0.3224094675203233    0.1798567340421542    0.3728662872640882   1
  0.3829154571938886    0.7146130553686518    0.3701077534948709   1
  0.3258826795949830    0.7769537283768528    0.3691504442579969   1
  0.2400606924009736    0.7603210813810293    0.3731965563349604   1
  0.1779542846473916    0.8237977224888553    0.3725946383155261   1
  0.2160018303620177    0.6799697862014540    0.3780413208271085   1
  0.2767384420428769    0.6209573683934408    0.3784379946687366   1
  0.7768984085367592    0.8433732409850379    0.3718073660815477   1
  0.7161727708001564    0.7843586238641365    0.3728058307305488   1
  0.7403988116646687    0.7037867476566149    0.3726050503704101   1
  0.6782117900467668    0.6403570361297710    0.3734674234342350   1
  0.8263650425695772    0.6869421282988171    0.3714468977169290   1
  0.8833646450082284    0.7493423972291282    0.3706407307341308   1
  0.8601509923328550    0.1402340925791279    0.3729032221505264   1
  0.7980197006744874    0.2037060331168661    0.3727431650455770   1
  0.8222451384078724    0.2841016882066754    0.3687220070450365   1
  0.7616274677131329    0.3432151125224365    0.3687382040049485   1
  0.6552799268247682    0.2496187930997209    0.3763007112864400   1
  0.7121565691211487    0.1871233451088585    0.3765634172411865   1
  0.1904826975043505    0.3388038840640348    0.3749762487797668   2
  0.0879226168542502    0.2254109864796874    0.3763812016390844   2
  0.2781985431167158    0.0576353131281522    0.3732308681126568   2
  0.3883900348676477    0.1640459479694840    0.3718913303599365   2
  0.4501405168136472    0.7252083190961756    0.3674997636025168   2
  0.3473548266136461    0.8383946802291078    0.3653491117244059   2
  0.1501635400519064    0.6642550389138862    0.3814630917234751   2
  0.2604099486799711    0.5578991621293312    0.3817914835123091   2
  0.7604319174433698    0.9065565550773940    0.3717853246510074   2
  0.6502033739222028    0.8002049584676527    0.3738040955998443   2
  0.8480765989863883    0.6253619017800176    0.3712761930075530   2
  0.9506831874789299    0.7387281529326799    0.3699803286689232   2
  0.8881767569647891    0.2996353735451009    0.3656003484847759   2
  0.7781763047347141    0.4062493400138578    0.3658052811418671   2
  0.5880324626018449    0.2392298616321114    0.3790597195154461   2
  0.6904166161167922    0.1257052296600492    0.3798001175448960   2
  0.4426899126122805    0.5514812204849235    0.3741934986796309   3
  0.5957928449408669    0.4128694014054588    0.3726251677894723   3
  0.9426704505042167    0.9128133627938766    0.3721817387366286   3
  0.0957207016023816    0.0514055018543900    0.3730380498967421   3
  0.4775630566859306    0.3831451346099044    0.3720803766594827   3
  0.4159903049023157    0.4388314697868907    0.3720292865776074   3
  0.3420131567449616    0.4027423487286441    0.3723536180585043   3
  0.4437704320857137    0.3107825638415846    0.3724494064766191   3
  0.1787592939139699    0.1370934133708630    0.3747765047344771   4
  0.3595432229006832    0.6370845897072428    0.3745474805928808   4
  0.1963595504103850    0.9025913002151640    0.3709653363859573   4
  0.1224388153918170    0.9387654249698514    0.3713530881902543   4
  0.0608181224652213    0.8831656821097411    0.3730003720589536   4
  0.0945051723114005    0.8107767689694754    0.3738663446606694   4
  0.8598191072202326    0.8270439058744898    0.3708288584683928   4
  0.5947963692611111    0.6534984853296635    0.3752412076951899   4
  0.5609711322372277    0.5811451536948340    0.3753284474394363   4
  0.6224942251482517    0.5254576894873466    0.3736651585189179   4
  0.6964604536168437    0.5615198269073645    0.3724872688846474   4
  0.9774366846351512    0.0810735392197586    0.3731295869618307   4
  0.9436025394992456    0.1534114421223833    0.3730634708847660   4
  0.8418828832684468    0.0613858119515172    0.3728349253027261   4
  0.9158869651863384    0.0253556684132832    0.3729090268152220   4
  0.6787990690863381    0.3271613299964926    0.3724808770614700   4
%endblock AtomicCoordinatesAndAtomicSpecies

XC.functional          GGA
XC.authors             PBE
DFTD3                  .true.

Spin                   non-polarized

Mesh.Cutoff             800.0 Ry
PAO.EnergyShift         0.02 Ry
MaxSCFIterations        300
SCF.DM.Tolerance        1.d-5
SCF.Mixer.History       8
SCF.Mixer.Weight        0.1

OccupationFunction     FD
ElectronicTemperature  300 K

kgrid_Monkhorst_Pack  2 2 1

WriteDenchar           .false.
SaveRho                .false.
SaveDeltaRho           .false.
SaveElectrostaticPotential .false.
WriteCoorXmol          .true.
WriteCoorCerius        .true.

MD.TypeOfRun           CG
MD.NumCGsteps          2000
MD.MaxForceTol         0.02 eV/Ang
MD.MaxStressTol        0.5 GPa
MD.VariableCell        .true.

%block Geometry.Constraints
  cell-vector C
%endblock Geometry.Constraints
MD.RelaxCellOnly       .false.
MD.UseSaveXV           .true.
MD.UseSaveCG           .true.

GeometryConstraints    .false.

%block GeometryConstraints
%endblock GeometryConstraints

WriteMDXmol            .true.
WriteMDHistory         .true.
