%BLOCK LATTICE_ABC bohr
  4.35  4.35  4.35
  90.0  90.0  90.0
%ENDBLOCK LATTICE_ABC

%BLOCK POSITIONS_ABS bohr
Si  0.0  0.0  0.0
C   2.17 2.17 2.17
%ENDBLOCK POSITIONS_ABS
