%BLOCK LATTICE_CART ang
  10.0  0.0   0.0
  0.0   10.0  0.0
  0.0   0.0   10.0
%ENDBLOCK LATTICE_CART

%BLOCK POSITIONS_FRAC
O  0.5  0.5  0.5
H  0.6  0.6  0.5
H  0.4  0.6  0.5
%ENDBLOCK POSITIONS_FRAC

%BLOCK IONIC_CONSTRAINTS
1  O  1  1 0 0
2  O  1  0 1 0
3  O  1  0 0 1
4  H  1  0 1 0
%ENDBLOCK IONIC_CONSTRAINTS
