%BLOCK LATTICE_CART ang
  10.0  0.0   0.0
  0.0   10.0  0.0
  0.0   0.0   10.0
%ENDBLOCK LATTICE_CART

%BLOCK POSITIONS_FRAC
O  0.5  0.5  0.5
H  0.6  0.6  0.5  SPIN=0.5  LABEL=H1
H  0.4  0.6  0.5  SPIN=-0.5 LABEL=H2
%ENDBLOCK POSITIONS_FRAC
