%mem=2GB
%nprocshared=8
# B3LYP/6-31G(d) Geometry Optimization

Water molecule optimization

0 1
O  -0.000000  0.000000  0.117790
H   0.000000  0.755453 -0.471161
H   0.000000 -0.755453 -0.471161