! B3LYP def2-SVP
%maxcore     8192
%pal nprocs   8 end
* xyz -1 2
O   -0.000000  0.000000  0.117790
H    0.000000  0.755453 -0.471161
H    0.000000 -0.755453 -0.471161
*